(declare-datatypes ((Unit 0)) (((unit))))
(declare-datatypes ((Bits 0)) (((Bits (len (_ BitVec 8)) (contents (_ BitVec 64))))))
(declare-datatypes ((Zfloat_bits 0)) (((Zfloat_bits (Zfloat_bits_zexp Bits) (Zfloat_bits_zmantissa Bits) (Zfloat_bits_zsign (_ BitVec 1))))))
(declare-datatypes ((Zexception 0)) (((z__dummy_exnz3 (unz__dummy_exnz3 Unit)))))
(declare-const zz41616/1 (_ BitVec 64))
(declare-const zz41617/1 (_ BitVec 64))
(define-const zz41618/2 (_ BitVec 64) zz41616/1)
(define-const zz41620/2 (_ BitVec 64) zz41617/1)
(assert (= (ite (bvslt ((_ sign_extend 0) zz41618/2) ((_ sign_extend 0) zz41620/2)) zz41618/2 zz41620/2) (ite (bvslt ((_ sign_extend 0) zz41620/2) ((_ sign_extend 0) zz41618/2)) zz41620/2 zz41618/2)))
(check-sat)
